# Objective value = 1.9719025210899665e+03
x[0] 1
x[1] 1
x[2] 1
x[3] 1
x[4] 1
x[5] 1
x[6] 1
x[7] 0
x[8] 1
x[9] 1
x[10] 0
x[11] 0
x[12] 0
x[13] 0
x[14] 0
x[15] 1
x[16] 0
x[17] 0
x[18] 1
x[19] 0
x[20] 1
x[21] 0
x[22] 1
x[23] 1
x[24] 0
x[25] 1
x[26] 1
x[27] 0
x[28] 0
x[29] 1
x[30] 0
x[31] 1
x[32] 1
x[33] 1
x[34] 0
x[35] 0
x[36] 0
x[37] 1
x[38] 1
x[39] 0
x[40] 1
x[41] 0
x[42] 0
x[43] 0
x[44] 0
x[45] 1
x[46] 1
x[47] 1
x[48] 1
x[49] 1
x[50] 1
x[51] 1
x[52] 1
x[53] 1
x[54] 0
x[55] 1
x[56] 1
x[57] 1
x[58] 1
x[59] 1
x[60] 1
x[61] 0
x[62] 0
x[63] 1
x[64] 0
x[65] 1
x[66] 0
x[67] 0
x[68] 0
x[69] 1
x[70] 1
x[71] 0
x[72] 1
x[73] 1
x[74] 0
x[75] 0
x[76] 1
x[77] 0
x[78] 0
x[79] 0
x[80] 0
x[81] 1
x[82] 0
x[83] 0
x[84] 1
x[85] 1
x[86] 1
x[87] 1
x[88] 0
x[89] 0
x[90] 1
x[91] 0
x[92] 0
x[93] 0
x[94] 1
x[95] 1
x[96] 1
x[97] 0
x[98] 0
x[99] 0
x[100] 0
x[101] 1
x[102] 1
x[103] 1
x[104] 0
x[105] 0
x[106] 1
x[107] 1
x[108] 0
x[109] 0
x[110] 1
x[111] 0
x[112] 1
x[113] 0
x[114] 1
x[115] 0
x[116] 0
x[117] 1
x[118] 1
x[119] 0
x[120] 0
x[121] 1
x[122] 1
x[123] 0
x[124] 1
x[125] 1
x[126] 1
x[127] 1
x[128] 1
x[129] 1
x[130] 1
x[131] 1
x[132] 0
x[133] 1
x[134] 1
x[135] 0
x[136] 1
x[137] 1
x[138] 0
x[139] 1
x[140] 1
x[141] 1
x[142] 0
x[143] 0
x[144] 1
x[145] 0
x[146] 1
x[147] 1
x[148] 1
x[149] 1
x[150] 1
x[151] 0
x[152] 0
x[153] 1
x[154] 0
x[155] 1
x[156] 0
x[157] 0
x[158] 0
x[159] 1
x[160] 1
x[161] 0
x[162] 1
x[163] 1
x[164] 1
x[165] 1
x[166] 0
x[167] 1
x[168] 0
x[169] 1
x[170] 1
x[171] 0
x[172] 1
x[173] 1
x[174] 0
x[175] 1
x[176] 1
x[177] 1
x[178] 1
x[179] 1
x[180] 1
x[181] 0
x[182] 0
x[183] 1
x[184] 1
x[185] 1
x[186] 0
x[187] 1
x[188] 0
x[189] 0
x[190] 0
x[191] 1
x[192] 0
x[193] 1
x[194] 0
x[195] 0
x[196] 1
x[197] 0
x[198] 0
x[199] 0
x[200] 1
x[201] 1
x[202] 1
x[203] 0
x[204] 0
x[205] 0
x[206] 1
x[207] 1
x[208] 0
x[209] 1
x[210] 1
x[211] 1
x[212] 0
x[213] 1
x[214] 1
x[215] 1
x[216] 1
x[217] 1
x[218] 1
x[219] 0
x[220] 0
x[221] 1
x[222] 0
x[223] 0
x[224] 0
x[225] 0
x[226] 1
x[227] 1
x[228] 0
x[229] 0
x[230] 1
x[231] 1
x[232] 1
x[233] 1
x[234] 0
x[235] 1
x[236] 0
x[237] 1
x[238] 1
x[239] 1
x[240] 0
x[241] 1
x[242] 1
x[243] 1
x[244] 0
x[245] 1
x[246] 0
x[247] 1
x[248] 1
x[249] 0
x[250] 0
x[251] 1
x[252] 1
x[253] 1
x[254] 0
x[255] 0
x[256] 0
x[257] 0
x[258] 1
x[259] 0
x[260] 1
x[261] 1
x[262] 0
x[263] 0
x[264] 1
x[265] 0
x[266] 0
x[267] 0
x[268] 1
x[269] 1
x[270] 1
x[271] 0
x[272] 1
x[273] 0
x[274] 1
x[275] 0
x[276] 0
x[277] 0
x[278] 1
x[279] 0
x[280] 0
x[281] 1
x[282] 0
x[283] 0
x[284] 0
x[285] 0
x[286] 0
x[287] 1
x[288] 0
x[289] 1
x[290] 0
x[291] 1
x[292] 1
x[293] 1
x[294] 1
x[295] 1
x[296] 1
x[297] 1
x[298] 0
x[299] 0
x[300] 1
x[301] 1
x[302] 1
x[303] 1
x[304] 0
x[305] 1
x[306] 0
x[307] 1
x[308] 1
x[309] 1
x[310] 1
x[311] 0
x[312] 0
x[313] 0
x[314] 0
x[315] 0
x[316] 1
x[317] 0
x[318] 1
x[319] 1
x[320] 0
x[321] 0
x[322] 0
x[323] 0
x[324] 1
x[325] 0
x[326] 0
x[327] 1
x[328] 0
x[329] 1
x[330] 0
x[331] 1
x[332] 0
x[333] 1
x[334] 0
x[335] 0
x[336] 1
x[337] 0
x[338] 1
x[339] 1
x[340] 1
x[341] 0
x[342] 1
x[343] 1
x[344] 1
x[345] 1
x[346] 0
x[347] 1
x[348] 0
x[349] 0
x[350] 0
x[351] 0
x[352] 0
x[353] 1
x[354] 0
x[355] 1
x[356] 1
x[357] 0
x[358] 1
x[359] 1
x[360] 0
x[361] 0
x[362] 1
x[363] 0
x[364] 0
x[365] 0
x[366] 1
x[367] 0
x[368] 0
x[369] 1
x[370] 0
x[371] 0
x[372] 1
x[373] 0
x[374] 1
x[375] 0
x[376] 1
x[377] 0
x[378] 0
x[379] 1
x[380] 1
x[381] 0
x[382] 1
x[383] 1
x[384] 1
x[385] 1
x[386] 1
x[387] 0
x[388] 1
x[389] 0
x[390] 1
x[391] 0
x[392] 1
x[393] 0
x[394] 1
x[395] 0
x[396] 0
x[397] 1
x[398] 1
x[399] 1
x[400] 0
x[401] 0
x[402] 0
x[403] 1
x[404] 1
x[405] 0
x[406] 0
x[407] 0
x[408] 1
x[409] 0
x[410] 1
x[411] 1
x[412] 1
x[413] 1
x[414] 1
x[415] 0
x[416] 0
x[417] 0
x[418] 0
x[419] 1
x[420] 1
x[421] 0
x[422] 1
x[423] 1
x[424] 1
x[425] 0
x[426] 1
x[427] 0
x[428] 1
x[429] 1
x[430] 1
x[431] 0
x[432] 1
x[433] 0
x[434] 1
x[435] 1
x[436] 1
x[437] 1
x[438] 1
x[439] 1
x[440] 0
x[441] 1
x[442] 1
x[443] 1
x[444] 1
x[445] 1
x[446] 1
x[447] 1
x[448] 1
x[449] 0
x[450] 0
x[451] 0
x[452] 0
x[453] 0
x[454] 0
x[455] 1
x[456] 1
x[457] 1
x[458] 1
x[459] 1
x[460] 1
x[461] 0
x[462] 1
x[463] 0
x[464] 0
x[465] 1
x[466] 1
x[467] 0
x[468] 1
x[469] 0
x[470] 1
x[471] 1
x[472] 1
x[473] 0
x[474] 0
x[475] 0
x[476] 1
x[477] 1
x[478] 0
x[479] 0
x[480] 1
x[481] 1
x[482] 0
x[483] 1
x[484] 1
x[485] 0
x[486] 1
x[487] 0
x[488] 0
x[489] 1
x[490] 0
x[491] 1
x[492] 1
x[493] 1
x[494] 1
x[495] 1
x[496] 1
x[497] 1
x[498] 0
x[499] 0
x[500] 1
x[501] 1
x[502] 0
x[503] 1
x[504] 0
x[505] 1
x[506] 0
x[507] 1
x[508] 1
x[509] 1
x[510] 1
x[511] 1
x[512] 1
x[513] 1
x[514] 0
x[515] 1
x[516] 1
x[517] 1
x[518] 0
x[519] 0
x[520] 0
x[521] 1
x[522] 1
x[523] 1
x[524] 1
x[525] 1
x[526] 1
x[527] 0
x[528] 1
x[529] 1
x[530] 0
x[531] 0
x[532] 1
x[533] 1
x[534] 0
x[535] 0
x[536] 1
x[537] 0
x[538] 1
x[539] 0
x[540] 0
x[541] 1
x[542] 1
x[543] 0
x[544] 1
x[545] 1
x[546] 1
x[547] 1
x[548] 1
x[549] 1
x[550] 0
x[551] 1
x[552] 1
x[553] 0
x[554] 1
x[555] 1
x[556] 0
x[557] 1
x[558] 0
x[559] 0
x[560] 1
x[561] 1
x[562] 1
x[563] 0
x[564] 1
x[565] 0
x[566] 0
x[567] 1
x[568] 0
x[569] 0
x[570] 0
x[571] 0
x[572] 1
x[573] 1
x[574] 0
x[575] 1
x[576] 0
x[577] 1
x[578] 0
x[579] 1
x[580] 0
x[581] 1
x[582] 1
x[583] 0
x[584] 0
x[585] 1
x[586] 1
x[587] 1
x[588] 0
x[589] 1
x[590] 1
x[591] 1
x[592] 0
x[593] 0
x[594] 0
x[595] 1
x[596] 1
x[597] 1
x[598] 0
x[599] 1
x[600] 1
x[601] 0
x[602] 1
x[603] 0
x[604] 0
x[605] 1
x[606] 0
x[607] 1
x[608] 0
x[609] 0
x[610] 1
x[611] 1
x[612] 0
x[613] 1
x[614] 0
x[615] 1
x[616] 0
x[617] 0
x[618] 1
x[619] 1
x[620] 1
x[621] 0
x[622] 1
x[623] 0
x[624] 1
x[625] 1
x[626] 1
x[627] 0
x[628] 0
x[629] 0
x[630] 1
x[631] 1
x[632] 1
x[633] 1
x[634] 1
x[635] 0
x[636] 1
x[637] 0
x[638] 0
x[639] 0
x[640] 1
x[641] 1
x[642] 1
x[643] 1
x[644] 1
x[645] 1
x[646] 1
x[647] 1
x[648] 1
x[649] 0
x[650] 0
x[651] 1
x[652] 0
x[653] 0
x[654] 0
x[655] 0
x[656] 0
x[657] 0
x[658] 1
x[659] 0
x[660] 1
x[661] 1
x[662] 0
x[663] 0
x[664] 1
x[665] 1
x[666] 0
x[667] 0
x[668] 0
x[669] 1
x[670] 0
x[671] 1
x[672] 0
x[673] 1
x[674] 0
x[675] 1
x[676] 1
x[677] 0
x[678] 1
x[679] 1
x[680] 0
x[681] 0
x[682] 1
x[683] 1
x[684] 1
x[685] 1
x[686] 1
x[687] 0
x[688] 0
x[689] 0
x[690] 0
x[691] 0
x[692] 1
x[693] 0
x[694] 0
x[695] 1
x[696] 0
x[697] 0
x[698] 1
x[699] 0
x[700] 1
x[701] 0
x[702] 1
x[703] 0
x[704] 0
x[705] 1
x[706] 1
x[707] 0
x[708] 1
x[709] 1
x[710] 1
x[711] 0
x[712] 0
x[713] 0
x[714] 0
x[715] 0
x[716] 1
x[717] 1
x[718] 1
x[719] 1
x[720] 1
x[721] 1
x[722] 0
x[723] 1
x[724] 1
x[725] 1
x[726] 0
x[727] 1
x[728] 1
x[729] 1
x[730] 0
x[731] 0
x[732] 1
x[733] 1
x[734] 0
x[735] 0
x[736] 1
x[737] 1
x[738] 1
x[739] 1
x[740] 1
x[741] 1
x[742] 1
x[743] 1
x[744] 1
x[745] 1
x[746] 1
x[747] 1
x[748] 0
x[749] 1
x[750] 1
x[751] 1
x[752] 1
x[753] 0
x[754] 1
x[755] 1
x[756] 1
x[757] 1
x[758] 0
x[759] 1
x[760] 1
x[761] 1
x[762] 1
x[763] 1
x[764] 0
x[765] 1
x[766] 1
x[767] 0
x[768] 1
x[769] 1
x[770] 0
x[771] 1
x[772] 1
x[773] 1
x[774] 1
x[775] 1
x[776] 0
x[777] 0
x[778] 0
x[779] 1
x[780] 1
x[781] 1
x[782] 1
x[783] 0
x[784] 1
x[785] 0
x[786] 0
x[787] 0
x[788] 1
x[789] 0
x[790] 0
x[791] 1
x[792] 0
x[793] 0
x[794] 1
x[795] 1
x[796] 1
x[797] 1
x[798] 1
x[799] 0
x[800] 1
x[801] 1
x[802] 1
x[803] 1
x[804] 1
x[805] 1
x[806] 1
x[807] 1
x[808] 1
x[809] 0
x[810] 1
x[811] 0
x[812] 1
x[813] 1
x[814] 1
x[815] 1
x[816] 0
x[817] 1
x[818] 1
x[819] 1
x[820] 0
x[821] 1
x[822] 1
x[823] 1
x[824] 1
x[825] 1
x[826] 1
x[827] 0
x[828] 0
x[829] 1
x[830] 0
x[831] 0
x[832] 0
x[833] 0
x[834] 0
x[835] 0
x[836] 0
x[837] 1
x[838] 1
x[839] 1
x[840] 1
x[841] 1
x[842] 0
x[843] 0
x[844] 0
x[845] 1
x[846] 1
x[847] 1
x[848] 0
x[849] 1
x[850] 0
x[851] 0
x[852] 0
x[853] 1
x[854] 1
x[855] 1
x[856] 1
x[857] 0
x[858] 1
x[859] 1
x[860] 0
x[861] 0
x[862] 1
x[863] 1
x[864] 1
x[865] 0
x[866] 0
x[867] 0
x[868] 0
x[869] 1
x[870] 0
x[871] 0
x[872] 0
x[873] 0
x[874] 0
x[875] 1
x[876] 1
x[877] 0
x[878] 1
x[879] 1
x[880] 1
x[881] 0
x[882] 0
x[883] 1
x[884] 1
x[885] 0
x[886] 1
x[887] 1
x[888] 1
x[889] 1
x[890] 0
x[891] 1
x[892] 0
x[893] 1
x[894] 0
x[895] 1
x[896] 0
x[897] 0
x[898] 1
x[899] 0
x[900] 0
x[901] 0
x[902] 0
x[903] 1
x[904] 1
x[905] 0
x[906] 1
x[907] 1
x[908] 0
x[909] 1
x[910] 1
x[911] 0
x[912] 0
x[913] 0
x[914] 1
x[915] 1
x[916] 0
x[917] 1
x[918] 1
x[919] 1
x[920] 0
x[921] 0
x[922] 1
x[923] 1
x[924] 0
x[925] 0
x[926] 0
x[927] 0
x[928] 0
x[929] 1
x[930] 1
x[931] 0
x[932] 0
x[933] 0
x[934] 1
x[935] 1
x[936] 1
x[937] 0
x[938] 0
x[939] 0
x[940] 1
x[941] 0
x[942] 0
x[943] 0
x[944] 0
x[945] 1
x[946] 1
x[947] 0
x[948] 1
x[949] 1
x[950] 0
x[951] 0
x[952] 1
x[953] 0
x[954] 1
x[955] 1
x[956] 0
x[957] 0
x[958] 1
x[959] 1
x[960] 1
x[961] 0
x[962] 1
x[963] 1
x[964] 0
x[965] 0
x[966] 0
x[967] 0
x[968] 1
x[969] 1
x[970] 0
x[971] 0
x[972] 0
x[973] 0
x[974] 1
x[975] 1
x[976] 0
x[977] 1
x[978] 1
x[979] 1
x[980] 0
x[981] 0
x[982] 0
x[983] 0
x[984] 1
x[985] 0
x[986] 1
x[987] 1
x[988] 1
x[989] 1
x[990] 0
x[991] 1
x[992] 0
x[993] 0
x[994] 1
x[995] 0
x[996] 0
x[997] 1
x[998] 1
x[999] 1
